letting np_cars_plus be 161
letting np_classes be 4
letting np_options be 174
letting quantity_range_min be 41
letting quantity_range_delta be 84
letting maxcars_range_min be 1
letting maxcars_range_delta be 5
letting blksize_delta_range_min be 1
letting blksize_delta_range_delta be 2
letting usage_card_min be 550
letting usage_card_delta be 48